language ESSENCE' 1.0

letting pos_FunctionND be
        [[1, 3; int(1..2)], [9, 12; int(1..2)], [2, 6; int(1..2)], [10, 15; int(1..2)], [8, 14; int(1..2)],
         [4, 11; int(1..2)], [5, 13; int(1..2)], [7, 16; int(1..2)];
             int(1..8)]
$ Visualisation for pos_FunctionND
$  1  3
$  9 12
$  2  6
$ 10 15
$  8 14
$  4 11
$  5 13
$  7 16

letting seq_ExplicitBounded_Length be 16
letting seq_ExplicitBounded_Values be [1, 3, 1, 6, 7, 3, 8, 5, 2, 4, 6, 2, 7, 5, 4, 8; int(1..16)]
